50 8
755 516
561 197
397 941
626 287
574 690
360 476
323 591
554 716
398 528
567 575
794 351
824 642
217 475
265 593
417 688
815 599
920 911
305 814
527 327
371 474
865 819
581 404
625 134
892 823
810 557
203 559
546 100
897 934
582 149
825 391
422 434
521 614
755 382
191 545
747 393
831 834
263 750
364 754
567 598
270 961
382 688
431 723
498 133
787 427
162 543
295 909
328 801
765 165
333 948
305 732
